1971.95
0 10 72 64 2 52 0
0 56 1 62 35 46 0
0 31 18 24 3 75 0
0 9 55 40 12 29 0
0 44 50 49 16 63 45 0
0 53 54 30 23 25 17 0
0 57 15 48 67 32 0
0 43 42 28 71 60 59 0
0 14 19 36 69 73 33 0
0 66 38 26 47 0
0 20 70 65 39 74 4 0
0 37 61 68 6 58 34 0
0 22 41 7 11 13 0
0 8 27 5 21 51 0
